2649360
57,64,212,59,135,172,124,63,185,122,152,30,58,38,160,136,221,132,182,218,181,25,79,85,193,6,146,228,4,12,166,60,115,45,134,91,196,162,126,177,68,154,189,23,97,43,74,83,49,207,32,157,52,119,77,106,222,141,219,128,66,190,99,202,56,18,54,53,158,103,204,8,198,191,31,70,36,5,95,127,163,201,19,149,148,47,33,153,129,203,217,21,176,211,159,213,192,102,35,62,27,40,101,169,89,87,161,183,117,179,55,94,107,116,208,51,125,227,113,229,20,78,108,144,44,14,16,48,230,13,223,3,131,41,92,216,100,24,105,175,121,180,42,84,173,104,17,11,65,145,137,165,214,76,199,209,15,156,10,86,178,61,67,138,39,118,120,1,210,225,206,200,168,197,29,139,123,96,215,69,187,93,188,226,82,195,98,73,194,143,167,110,50,205,22,7,140,72,26,28,155,112,133,130,81,151,184,37,111,80,174,164,114,220,75,9,34,71,147,46,2,224,90,109,88,186,150,171,142,170